CMPL model generation - running

CMPL version: 1.11.0
Authors: Thomas Schleiff, Mike Steglich
Distributed under the GPLv3 

create model instance ...
write model instance ...
CMPL model generation - finished

Solver - running


Welcome to IBM(R) ILOG(R) CPLEX(R) Interactive Optimizer 12.7.1.0
  with Simplex, Mixed Integer & Barrier Optimizers
5725-A06 5725-A29 5724-Y48 5724-Y49 5724-Y54 5724-Y55 5655-Y21
Copyright IBM Corp. 1988, 2017.  All Rights Reserved.

Type 'help' for a list of available commands.
Type 'help' followed by a command name for more
information on commands.

CPLEX> Specified objective sense: MINIMIZE
Selected objective  name:  line[1]
Selected RHS        name:  RHS
Selected bound      name:  BOUND
Problem '/tmp/cmpl.T23848.mps' read.
Read time = 0.09 sec. (8.17 ticks)
CPLEX> CPXPARAM_Read_APIEncoding                        "UTF-8"
Tried aggregator 3 times.
MIP Presolve eliminated 19261 rows and 30751 columns.
MIP Presolve modified 340 coefficients.
Aggregator did 610 substitutions.
Reduced MIP has 2484 rows, 3232 columns, and 9432 nonzeros.
Reduced MIP has 3064 binaries, 0 generals, 0 SOSs, and 0 indicators.
Presolve time = 0.08 sec. (40.34 ticks)
Found incumbent of value 468.494249 after 0.16 sec. (59.96 ticks)
Probing fixed 5 vars, tightened 0 bounds.
Probing time = 0.04 sec. (4.18 ticks)
Tried aggregator 1 time.
MIP Presolve eliminated 0 rows and 5 columns.
MIP Presolve modified 20 coefficients.
Reduced MIP has 2484 rows, 3227 columns, and 9422 nonzeros.
Reduced MIP has 3227 binaries, 0 generals, 0 SOSs, and 0 indicators.
Presolve time = 0.01 sec. (7.97 ticks)
Probing time = 0.05 sec. (2.67 ticks)
Clique table members: 5891.
MIP emphasis: balance optimality and feasibility.
MIP search method: dynamic search.
Parallel mode: none, using 1 thread.
Root relaxation solution time = 0.01 sec. (4.36 ticks)

        Nodes                                         Cuts/
   Node  Left     Objective  IInf  Best Integer    Best Bound    ItCnt     Gap

*     0+    0                          468.4942      -48.4095           110.33%
      0     0       86.1133    16      468.4942       86.1133       92   81.62%
*     0+    0                          106.1410       86.1133            18.87%
*     0+    0                           86.5704       86.1133             0.53%
      0     0       86.4919     2       86.5704      Cuts: 18      102    0.09%
*     0+    0                           86.5491       86.4919             0.07%
      0     0       86.5031     1       86.5491       Cuts: 7      104    0.05%
*     0+    0                           86.5265       86.5031             0.03%
*     0+    0                           86.5226       86.5031             0.02%
      0     0        cutoff             86.5226       86.5031      104    0.02%
Elapsed time = 0.44 sec. (126.27 ticks, tree = 0.01 MB, solutions = 6)

Clique cuts applied:  1
Cover cuts applied:  16
Gomory fractional cuts applied:  8

Root node processing (before b&c):
  Real time             =    0.44 sec. (128.45 ticks)
Sequential b&c:
  Real time             =    0.00 sec. (0.00 ticks)
                          ------------
Total (root+branch&cut) =    0.44 sec. (128.45 ticks)

Solution pool: 6 solutions saved.

MIP - Integer optimal solution:  Objective =  8.6522594000e+01
Solution time =    0.44 sec.  Iterations = 104  Nodes = 0
Deterministic time = 128.55 ticks  (290.38 ticks/sec)

CPLEX> Incumbent solution written to file '/tmp/cmpl.T23848.gsol'.
CPLEX> 
CMPL: Time used for model generation: 1 seconds
CMPL: Time used for solving the model: 1 seconds


Solution written to ASCII file: results/output_generated_conf_0.3/2016-11-07-4/fair-nonlinear.sol

Solver - finished
